@relation algofinder_algorithm_runs

@attribute instance_id STRING
@attribute bp-exact-dfs NUMERIC
@attribute bp-ffd NUMERIC
@attribute bp-large-items-exact NUMERIC
@attribute bp-large-items-greedy NUMERIC
@attribute bp-learned-order NUMERIC
@attribute chained-2opt-euclidean NUMERIC
@attribute dag-topological-relaxation NUMERIC
@attribute dijkstra NUMERIC
@attribute distance-ranked-2opt NUMERIC
@attribute general-2opt NUMERIC
@attribute held-karp NUMERIC
@attribute incremental-exact NUMERIC
@attribute jobshop-bnb-exact NUMERIC
@attribute jobshop-greedy NUMERIC
@attribute johnson-flow-shop NUMERIC
@attribute knapsack-bnb-exact NUMERIC
@attribute knapsack-dp-exact NUMERIC
@attribute knapsack-greedy-density NUMERIC
@attribute learned-candidate-2opt NUMERIC
@attribute learned-flow-shop NUMERIC
@attribute learned-sp-pruning NUMERIC
@attribute ps-cp-list NUMERIC
@attribute ps-exact NUMERIC
@attribute ps-hu NUMERIC
@attribute ps-learned-priority NUMERIC
@attribute ps-list-scheduling NUMERIC
@attribute uc-exact-dp NUMERIC
@attribute uc-learned-commitment NUMERIC
@attribute uc-priority-list NUMERIC
@attribute uc-storage-dp NUMERIC
@attribute uc-storage-learned NUMERIC
@attribute uc-storage-threshold NUMERIC

@data
bin-packing:large-items:n14-s7201-i0,13.0,13.0,13.0,13.0,13.0,?,?,?,?,?,?,?,?,?,?,?,?,?,?,?,?,?,?,?,?,?,?,?,?,?,?,?
bin-packing:large-items:n14-s7201-i1,12.0,12.0,12.0,12.0,13.0,?,?,?,?,?,?,?,?,?,?,?,?,?,?,?,?,?,?,?,?,?,?,?,?,?,?,?
bin-packing:large-items:n15-s7201-i2,15.0,15.0,15.0,15.0,15.0,?,?,?,?,?,?,?,?,?,?,?,?,?,?,?,?,?,?,?,?,?,?,?,?,?,?,?
bin-packing:large-items:n15-s7201-i3,12.0,12.0,12.0,12.0,13.0,?,?,?,?,?,?,?,?,?,?,?,?,?,?,?,?,?,?,?,?,?,?,?,?,?,?,?
bin-packing:large-items:n18-s7201-i1,?,17.0,17.0,17.0,17.0,?,?,?,?,?,?,?,?,?,?,?,?,?,?,?,?,?,?,?,?,?,?,?,?,?,?,?
bin-packing:large-items:n18-s7201-i3,?,14.0,14.0,14.0,15.0,?,?,?,?,?,?,?,?,?,?,?,?,?,?,?,?,?,?,?,?,?,?,?,?,?,?,?
bin-packing:large-items:n19-s7201-i0,?,17.0,17.0,17.0,18.0,?,?,?,?,?,?,?,?,?,?,?,?,?,?,?,?,?,?,?,?,?,?,?,?,?,?,?
bin-packing:large-items:n19-s7201-i2,?,18.0,18.0,18.0,18.0,?,?,?,?,?,?,?,?,?,?,?,?,?,?,?,?,?,?,?,?,?,?,?,?,?,?,?
bin-packing:vector:n11d2-s7001-i1,8.0,8.0,?,?,9.0,?,?,?,?,?,?,?,?,?,?,?,?,?,?,?,?,?,?,?,?,?,?,?,?,?,?,?
bin-packing:vector:n11d3-s7001-i2,11.0,11.0,?,?,11.0,?,?,?,?,?,?,?,?,?,?,?,?,?,?,?,?,?,?,?,?,?,?,?,?,?,?,?
bin-packing:vector:n12d2-s7001-i3,8.0,8.0,?,?,9.0,?,?,?,?,?,?,?,?,?,?,?,?,?,?,?,?,?,?,?,?,?,?,?,?,?,?,?
bin-packing:vector:n13d2-s7001-i3,11.0,11.0,?,?,11.0,?,?,?,?,?,?,?,?,?,?,?,?,?,?,?,?,?,?,?,?,?,?,?,?,?,?,?
bin-packing:vector:n13d3-s7001-i0,12.0,12.0,?,?,12.0,?,?,?,?,?,?,?,?,?,?,?,?,?,?,?,?,?,?,?,?,?,?,?,?,?,?,?
bin-packing:vector:n15d2-s7001-i1,11.0,11.0,?,?,13.0,?,?,?,?,?,?,?,?,?,?,?,?,?,?,?,?,?,?,?,?,?,?,?,?,?,?,?
bin-packing:vector:n16d3-s7001-i0,13.0,13.0,?,?,14.0,?,?,?,?,?,?,?,?,?,?,?,?,?,?,?,?,?,?,?,?,?,?,?,?,?,?,?
bin-packing:vector:n16d3-s7001-i2,13.0,13.0,?,?,14.0,?,?,?,?,?,?,?,?,?,?,?,?,?,?,?,?,?,?,?,?,?,?,?,?,?,?,?
knapsack:0-1:n19-s4101-i3,?,?,?,?,?,?,?,?,?,?,?,?,?,?,?,704.0,704.0,704.0,?,?,?,?,?,?,?,?,?,?,?,?,?,?
knapsack:0-1:n21-s4101-i0,?,?,?,?,?,?,?,?,?,?,?,?,?,?,?,830.0,830.0,820.0,?,?,?,?,?,?,?,?,?,?,?,?,?,?
knapsack:0-1:n21-s4101-i1,?,?,?,?,?,?,?,?,?,?,?,?,?,?,?,910.0,910.0,910.0,?,?,?,?,?,?,?,?,?,?,?,?,?,?
knapsack:0-1:n23-s4101-i2,?,?,?,?,?,?,?,?,?,?,?,?,?,?,?,863.0,863.0,863.0,?,?,?,?,?,?,?,?,?,?,?,?,?,?
knapsack:0-1:n34-s4201-i0,?,?,?,?,?,?,?,?,?,?,?,?,?,?,?,1132.0,1132.0,1126.0,?,?,?,?,?,?,?,?,?,?,?,?,?,?
knapsack:0-1:n37-s4201-i3,?,?,?,?,?,?,?,?,?,?,?,?,?,?,?,1418.0,1418.0,1413.0,?,?,?,?,?,?,?,?,?,?,?,?,?,?
knapsack:0-1:n42-s4201-i2,?,?,?,?,?,?,?,?,?,?,?,?,?,?,?,1729.0,1729.0,1729.0,?,?,?,?,?,?,?,?,?,?,?,?,?,?
knapsack:0-1:n43-s4201-i1,?,?,?,?,?,?,?,?,?,?,?,?,?,?,?,1596.0,1596.0,1573.0,?,?,?,?,?,?,?,?,?,?,?,?,?,?
knapsack:multidimensional:n21-s4101-i0,?,?,?,?,?,?,?,?,?,?,?,?,?,?,?,773.0,?,715.0,?,?,?,?,?,?,?,?,?,?,?,?,?,?
knapsack:multidimensional:n21-s4101-i2,?,?,?,?,?,?,?,?,?,?,?,?,?,?,?,703.0,?,693.0,?,?,?,?,?,?,?,?,?,?,?,?,?,?
knapsack:multidimensional:n24-s4101-i1,?,?,?,?,?,?,?,?,?,?,?,?,?,?,?,786.0,?,780.0,?,?,?,?,?,?,?,?,?,?,?,?,?,?
knapsack:multidimensional:n26-s4101-i3,?,?,?,?,?,?,?,?,?,?,?,?,?,?,?,1059.0,?,1038.0,?,?,?,?,?,?,?,?,?,?,?,?,?,?
knapsack:multidimensional:n34-s4201-i0,?,?,?,?,?,?,?,?,?,?,?,?,?,?,?,1212.0,?,1174.0,?,?,?,?,?,?,?,?,?,?,?,?,?,?
knapsack:multidimensional:n35-s4201-i1,?,?,?,?,?,?,?,?,?,?,?,?,?,?,?,1347.0,?,1322.0,?,?,?,?,?,?,?,?,?,?,?,?,?,?
knapsack:multidimensional:n41-s4201-i3,?,?,?,?,?,?,?,?,?,?,?,?,?,?,?,?,?,1507.0,?,?,?,?,?,?,?,?,?,?,?,?,?,?
knapsack:multidimensional:n42-s4201-i2,?,?,?,?,?,?,?,?,?,?,?,?,?,?,?,?,?,1311.0,?,?,?,?,?,?,?,?,?,?,?,?,?,?
knapsack:subset-sum:n18-s4101-i1,?,?,?,?,?,?,?,?,?,?,?,?,?,?,?,973.0,973.0,969.0,?,?,?,?,?,?,?,?,?,?,?,?,?,?
knapsack:subset-sum:n21-s4101-i0,?,?,?,?,?,?,?,?,?,?,?,?,?,?,?,967.0,967.0,963.0,?,?,?,?,?,?,?,?,?,?,?,?,?,?
knapsack:subset-sum:n21-s4101-i2,?,?,?,?,?,?,?,?,?,?,?,?,?,?,?,989.0,989.0,989.0,?,?,?,?,?,?,?,?,?,?,?,?,?,?
knapsack:subset-sum:n24-s4101-i3,?,?,?,?,?,?,?,?,?,?,?,?,?,?,?,1369.0,1369.0,1355.0,?,?,?,?,?,?,?,?,?,?,?,?,?,?
knapsack:subset-sum:n34-s4201-i0,?,?,?,?,?,?,?,?,?,?,?,?,?,?,?,1757.0,1757.0,1756.0,?,?,?,?,?,?,?,?,?,?,?,?,?,?
knapsack:subset-sum:n41-s4201-i1,?,?,?,?,?,?,?,?,?,?,?,?,?,?,?,1572.0,1572.0,1569.0,?,?,?,?,?,?,?,?,?,?,?,?,?,?
knapsack:subset-sum:n41-s4201-i2,?,?,?,?,?,?,?,?,?,?,?,?,?,?,?,2157.0,2157.0,2152.0,?,?,?,?,?,?,?,?,?,?,?,?,?,?
knapsack:subset-sum:n41-s4201-i3,?,?,?,?,?,?,?,?,?,?,?,?,?,?,?,2028.0,2028.0,2027.0,?,?,?,?,?,?,?,?,?,?,?,?,?,?
parallel-scheduling:forest:n10m3-s7601-i3,?,?,?,?,?,?,?,?,?,?,?,?,?,?,?,?,?,?,?,?,?,4.0,4.0,4.0,4.0,4.0,?,?,?,?,?,?
parallel-scheduling:forest:n11m2-s7601-i2,?,?,?,?,?,?,?,?,?,?,?,?,?,?,?,?,?,?,?,?,?,7.0,?,6.0,7.0,7.0,?,?,?,?,?,?
parallel-scheduling:forest:n12m2-s7601-i0,?,?,?,?,?,?,?,?,?,?,?,?,?,?,?,?,?,?,?,?,?,8.0,?,7.0,8.0,8.0,?,?,?,?,?,?
parallel-scheduling:forest:n12m4-s7601-i1,?,?,?,?,?,?,?,?,?,?,?,?,?,?,?,?,?,?,?,?,?,5.0,?,4.0,6.0,5.0,?,?,?,?,?,?
parallel-scheduling:forest:n14m2-s7601-i2,?,?,?,?,?,?,?,?,?,?,?,?,?,?,?,?,?,?,?,?,?,8.0,?,7.0,9.0,8.0,?,?,?,?,?,?
parallel-scheduling:forest:n14m2-s7601-i3,?,?,?,?,?,?,?,?,?,?,?,?,?,?,?,?,?,?,?,?,?,8.0,?,7.0,9.0,8.0,?,?,?,?,?,?
parallel-scheduling:forest:n15m2-s7601-i0,?,?,?,?,?,?,?,?,?,?,?,?,?,?,?,?,?,?,?,?,?,10.0,?,8.0,9.0,10.0,?,?,?,?,?,?
parallel-scheduling:forest:n16m4-s7601-i1,?,?,?,?,?,?,?,?,?,?,?,?,?,?,?,?,?,?,?,?,?,6.0,?,5.0,7.0,6.0,?,?,?,?,?,?
parallel-scheduling:general:n11m2-s7401-i3,?,?,?,?,?,?,?,?,?,?,?,?,?,?,?,?,?,?,?,?,?,23.0,?,?,23.0,28.0,?,?,?,?,?,?
parallel-scheduling:general:n12m3-s7401-i0,?,?,?,?,?,?,?,?,?,?,?,?,?,?,?,?,?,?,?,?,?,20.0,?,?,23.0,24.0,?,?,?,?,?,?
parallel-scheduling:general:n13m2-s7401-i1,?,?,?,?,?,?,?,?,?,?,?,?,?,?,?,?,?,?,?,?,?,22.0,?,?,24.0,23.0,?,?,?,?,?,?
parallel-scheduling:general:n13m3-s7401-i2,?,?,?,?,?,?,?,?,?,?,?,?,?,?,?,?,?,?,?,?,?,17.0,?,?,20.0,18.0,?,?,?,?,?,?
parallel-scheduling:general:n14m4-s7401-i3,?,?,?,?,?,?,?,?,?,?,?,?,?,?,?,?,?,?,?,?,?,14.0,?,?,17.0,15.0,?,?,?,?,?,?
parallel-scheduling:general:n9m2-s7401-i2,?,?,?,?,?,?,?,?,?,?,?,?,?,?,?,?,?,?,?,?,?,18.0,15.0,?,18.0,18.0,?,?,?,?,?,?
parallel-scheduling:general:n9m3-s7401-i0,?,?,?,?,?,?,?,?,?,?,?,?,?,?,?,?,?,?,?,?,?,13.0,12.0,?,14.0,14.0,?,?,?,?,?,?
parallel-scheduling:general:n9m4-s7401-i1,?,?,?,?,?,?,?,?,?,?,?,?,?,?,?,?,?,?,?,?,?,11.0,10.0,?,13.0,12.0,?,?,?,?,?,?
scheduling:flow-shop-2:n10-s6101-i3,?,?,?,?,?,?,?,?,?,?,?,?,?,?,205.0,?,?,?,?,205.0,?,?,?,?,?,?,?,?,?,?,?,?
scheduling:flow-shop-2:n14-s6101-i3,?,?,?,?,?,?,?,?,?,?,?,?,?,?,197.0,?,?,?,?,197.0,?,?,?,?,?,?,?,?,?,?,?,?
scheduling:flow-shop-2:n15-s6101-i0,?,?,?,?,?,?,?,?,?,?,?,?,?,?,319.0,?,?,?,?,319.0,?,?,?,?,?,?,?,?,?,?,?,?
scheduling:flow-shop-2:n15-s6101-i2,?,?,?,?,?,?,?,?,?,?,?,?,?,?,230.0,?,?,?,?,230.0,?,?,?,?,?,?,?,?,?,?,?,?
scheduling:flow-shop-2:n17-s6101-i1,?,?,?,?,?,?,?,?,?,?,?,?,?,?,367.0,?,?,?,?,367.0,?,?,?,?,?,?,?,?,?,?,?,?
scheduling:flow-shop-2:n24-s6101-i1,?,?,?,?,?,?,?,?,?,?,?,?,?,?,388.0,?,?,?,?,388.0,?,?,?,?,?,?,?,?,?,?,?,?
scheduling:flow-shop-2:n25-s6101-i0,?,?,?,?,?,?,?,?,?,?,?,?,?,?,551.0,?,?,?,?,551.0,?,?,?,?,?,?,?,?,?,?,?,?
scheduling:flow-shop-2:n27-s6101-i2,?,?,?,?,?,?,?,?,?,?,?,?,?,?,375.0,?,?,?,?,375.0,?,?,?,?,?,?,?,?,?,?,?,?
scheduling:flow-shop-2:n27-s6101-i3,?,?,?,?,?,?,?,?,?,?,?,?,?,?,437.0,?,?,?,?,437.0,?,?,?,?,?,?,?,?,?,?,?,?
scheduling:flow-shop-2:n7-s6101-i2,?,?,?,?,?,?,?,?,?,?,?,?,?,?,175.0,?,?,?,?,175.0,?,?,?,?,?,?,?,?,?,?,?,?
scheduling:flow-shop-2:n8-s6101-i0,?,?,?,?,?,?,?,?,?,?,?,?,?,?,173.0,?,?,?,?,173.0,?,?,?,?,?,?,?,?,?,?,?,?
scheduling:flow-shop-2:n8-s6101-i1,?,?,?,?,?,?,?,?,?,?,?,?,?,?,173.0,?,?,?,?,173.0,?,?,?,?,?,?,?,?,?,?,?,?
scheduling:job-shop:j3m2-s6301-i0,?,?,?,?,?,?,?,?,?,?,?,?,34.0,55.0,?,?,?,?,?,?,?,?,?,?,?,?,?,?,?,?,?,?
scheduling:job-shop:j3m2-s6301-i1,?,?,?,?,?,?,?,?,?,?,?,?,27.0,36.0,?,?,?,?,?,?,?,?,?,?,?,?,?,?,?,?,?,?
scheduling:job-shop:j3m2-s6301-i2,?,?,?,?,?,?,?,?,?,?,?,?,16.0,17.0,?,?,?,?,?,?,?,?,?,?,?,?,?,?,?,?,?,?
scheduling:job-shop:j3m3-s6301-i0,?,?,?,?,?,?,?,?,?,?,?,?,47.0,53.0,?,?,?,?,?,?,?,?,?,?,?,?,?,?,?,?,?,?
scheduling:job-shop:j3m3-s6301-i1,?,?,?,?,?,?,?,?,?,?,?,?,46.0,67.0,?,?,?,?,?,?,?,?,?,?,?,?,?,?,?,?,?,?
scheduling:job-shop:j3m3-s6301-i2,?,?,?,?,?,?,?,?,?,?,?,?,47.0,47.0,?,?,?,?,?,?,?,?,?,?,?,?,?,?,?,?,?,?
scheduling:job-shop:j4m2-s6301-i0,?,?,?,?,?,?,?,?,?,?,?,?,39.0,64.0,?,?,?,?,?,?,?,?,?,?,?,?,?,?,?,?,?,?
scheduling:job-shop:j4m2-s6301-i1,?,?,?,?,?,?,?,?,?,?,?,?,32.0,42.0,?,?,?,?,?,?,?,?,?,?,?,?,?,?,?,?,?,?
scheduling:job-shop:j4m2-s6301-i2,?,?,?,?,?,?,?,?,?,?,?,?,36.0,46.0,?,?,?,?,?,?,?,?,?,?,?,?,?,?,?,?,?,?
scheduling:job-shop:j4m3-s6301-i0,?,?,?,?,?,?,?,?,?,?,?,?,55.0,74.0,?,?,?,?,?,?,?,?,?,?,?,?,?,?,?,?,?,?
scheduling:job-shop:j4m3-s6301-i1,?,?,?,?,?,?,?,?,?,?,?,?,63.0,73.0,?,?,?,?,?,?,?,?,?,?,?,?,?,?,?,?,?,?
scheduling:job-shop:j4m3-s6301-i2,?,?,?,?,?,?,?,?,?,?,?,?,58.0,59.0,?,?,?,?,?,?,?,?,?,?,?,?,?,?,?,?,?,?
shortest-path:dag:n10-s5101-i1,?,?,?,?,?,?,0.0,0.0,?,?,?,?,?,?,?,?,?,?,?,?,0.0,?,?,?,?,?,?,?,?,?,?,?
shortest-path:dag:n11-s5101-i0,?,?,?,?,?,?,218.0,218.0,?,?,?,?,?,?,?,?,?,?,?,?,218.0,?,?,?,?,?,?,?,?,?,?,?
shortest-path:dag:n14-s5101-i2,?,?,?,?,?,?,702.0,702.0,?,?,?,?,?,?,?,?,?,?,?,?,702.0,?,?,?,?,?,?,?,?,?,?,?
shortest-path:dag:n14-s5101-i3,?,?,?,?,?,?,572.0,572.0,?,?,?,?,?,?,?,?,?,?,?,?,572.0,?,?,?,?,?,?,?,?,?,?,?
shortest-path:dag:n21-s5201-i0,?,?,?,?,?,?,1867.0,1867.0,?,?,?,?,?,?,?,?,?,?,?,?,1867.0,?,?,?,?,?,?,?,?,?,?,?
shortest-path:dag:n22-s5201-i1,?,?,?,?,?,?,546.0,546.0,?,?,?,?,?,?,?,?,?,?,?,?,546.0,?,?,?,?,?,?,?,?,?,?,?
shortest-path:dag:n23-s5201-i3,?,?,?,?,?,?,629.0,629.0,?,?,?,?,?,?,?,?,?,?,?,?,629.0,?,?,?,?,?,?,?,?,?,?,?
shortest-path:dag:n25-s5201-i2,?,?,?,?,?,?,1599.0,1599.0,?,?,?,?,?,?,?,?,?,?,?,?,1599.0,?,?,?,?,?,?,?,?,?,?,?
shortest-path:general:n11-s5101-i0,?,?,?,?,?,?,?,0.0,?,?,?,?,?,?,?,?,?,?,?,?,?,?,?,?,?,?,?,?,?,?,?,?
shortest-path:general:n11-s5101-i1,?,?,?,?,?,?,?,0.0,?,?,?,?,?,?,?,?,?,?,?,?,?,?,?,?,?,?,?,?,?,?,?,?
shortest-path:general:n13-s5101-i2,?,?,?,?,?,?,?,452.0,?,?,?,?,?,?,?,?,?,?,?,?,?,?,?,?,?,?,?,?,?,?,?,?
shortest-path:general:n14-s5101-i3,?,?,?,?,?,?,?,1418.0,?,?,?,?,?,?,?,?,?,?,?,?,?,?,?,?,?,?,?,?,?,?,?,?
shortest-path:general:n21-s5201-i0,?,?,?,?,?,?,?,2092.0,?,?,?,?,?,?,?,?,?,?,?,?,?,?,?,?,?,?,?,?,?,?,?,?
shortest-path:general:n24-s5201-i1,?,?,?,?,?,?,?,1640.0,?,?,?,?,?,?,?,?,?,?,?,?,?,?,?,?,?,?,?,?,?,?,?,?
shortest-path:general:n25-s5201-i3,?,?,?,?,?,?,?,1206.0,?,?,?,?,?,?,?,?,?,?,?,?,?,?,?,?,?,?,?,?,?,?,?,?
shortest-path:general:n26-s5201-i2,?,?,?,?,?,?,?,1229.0,?,?,?,?,?,?,?,?,?,?,?,?,?,?,?,?,?,?,?,?,?,?,?,?
tsp:clustered:clustered-n101-s1101-i4,?,?,?,?,?,3.0764601455944827,?,?,3.0733618071258753,3.264418990958933,?,?,?,?,?,?,?,?,3.1151382289489105,?,?,?,?,?,?,?,?,?,?,?,?,?
tsp:clustered:clustered-n18-s1101-i2,?,?,?,?,?,0.9167714017954761,?,?,0.9086938472898682,0.9086938472898682,0.9086938472898682,0.9086938472898682,?,?,?,?,?,?,0.9086938472898681,?,?,?,?,?,?,?,?,?,?,?,?,?
tsp:clustered:clustered-n39-s1101-i4,?,?,?,?,?,2.7762575155370723,?,?,2.7762575155370723,2.817121809611313,?,?,?,?,?,?,?,?,2.7762575155370723,?,?,?,?,?,?,?,?,?,?,?,?,?
tsp:clustered:clustered-n42-s1101-i2,?,?,?,?,?,1.725955718514631,?,?,1.725955718514631,1.7268708594655118,?,?,?,?,?,?,?,?,1.725955718514631,?,?,?,?,?,?,?,?,?,?,?,?,?
tsp:euclidean:corridor-n10-s1101-i0,?,?,?,?,?,4.956681478626497,?,?,4.956681478626497,4.960387310310894,4.956681478626497,4.956681478626498,?,?,?,?,?,?,4.956681478626497,?,?,?,?,?,?,?,?,?,?,?,?,?
tsp:euclidean:corridor-n10-s1101-i5,?,?,?,?,?,3.239338673054363,?,?,3.239338673054363,3.2393386730543634,3.239338673054363,3.239338673054364,?,?,?,?,?,?,3.2393386730543634,?,?,?,?,?,?,?,?,?,?,?,?,?
tsp:euclidean:corridor-n103-s1101-i1,?,?,?,?,?,5.416780920801474,?,?,5.416780920801474,5.596498685869995,?,?,?,?,?,?,?,?,5.416780920801474,?,?,?,?,?,?,?,?,?,?,?,?,?
tsp:euclidean:corridor-n19-s1101-i0,?,?,?,?,?,4.275433310803251,?,?,4.275433310803251,4.275433310803252,?,?,?,?,?,?,?,?,4.275433310803251,?,?,?,?,?,?,?,?,?,?,?,?,?
tsp:euclidean:corridor-n21-s1101-i1,?,?,?,?,?,4.32955375582965,?,?,4.32955375582965,4.32955375582965,?,?,?,?,?,?,?,?,4.32955375582965,?,?,?,?,?,?,?,?,?,?,?,?,?
tsp:euclidean:corridor-n24-s1101-i3,?,?,?,?,?,5.0616422427617955,?,?,5.0616422427617955,5.072642513592891,?,?,?,?,?,?,?,?,5.064134500660724,?,?,?,?,?,?,?,?,?,?,?,?,?
tsp:euclidean:corridor-n39-s1101-i0,?,?,?,?,?,3.361467670843884,?,?,3.3701943040870166,3.3812203699151357,?,?,?,?,?,?,?,?,3.3701943040870166,?,?,?,?,?,?,?,?,?,?,?,?,?
tsp:euclidean:corridor-n41-s1101-i1,?,?,?,?,?,5.709788788491162,?,?,5.709788788491162,5.79070747841538,?,?,?,?,?,?,?,?,5.709788788491162,?,?,?,?,?,?,?,?,?,?,?,?,?
tsp:euclidean:corridor-n9-s1101-i1,?,?,?,?,?,4.942372989663027,?,?,4.942372989663027,4.942372989663027,4.942372989663027,4.942372989663028,?,?,?,?,?,?,4.942372989663027,?,?,?,?,?,?,?,?,?,?,?,?,?
tsp:euclidean:corridor-n9-s1101-i3,?,?,?,?,?,2.8701717340881228,?,?,2.8701717340881228,2.8701717340881223,2.8701717340881228,2.8701717340881228,?,?,?,?,?,?,2.8701717340881228,?,?,?,?,?,?,?,?,?,?,?,?,?
tsp:euclidean:corridor-n97-s1101-i0,?,?,?,?,?,4.592286387492622,?,?,4.592286387492622,4.630309301696767,?,?,?,?,?,?,?,?,4.5922863874926225,?,?,?,?,?,?,?,?,?,?,?,?,?
tsp:euclidean:uniform-n102-s1101-i2,?,?,?,?,?,7.4702816387383075,?,?,7.422644108917366,7.907404362877113,?,?,?,?,?,?,?,?,7.433955134672647,?,?,?,?,?,?,?,?,?,?,?,?,?
tsp:euclidean:uniform-n18-s1101-i4,?,?,?,?,?,4.540195478219598,?,?,4.540195478219598,4.6410726888363,4.540195478219599,4.540195478219599,?,?,?,?,?,?,4.540195478219598,?,?,?,?,?,?,?,?,?,?,?,?,?
tsp:euclidean:uniform-n21-s1101-i5,?,?,?,?,?,3.544701100049639,?,?,3.544701100049639,3.788210333406392,?,3.5447011000496396,?,?,?,?,?,?,3.5447011000496396,?,?,?,?,?,?,?,?,?,?,?,?,?
tsp:euclidean:uniform-n43-s1101-i3,?,?,?,?,?,4.897965449055193,?,?,4.897965449055193,5.013011649213928,?,?,?,?,?,?,?,?,4.869079472303986,?,?,?,?,?,?,?,?,?,?,?,?,?
tsp:euclidean:uniform-n46-s1101-i5,?,?,?,?,?,7.25408595808467,?,?,7.4640313836361845,7.5427485393935685,?,?,?,?,?,?,?,?,7.254085958084669,?,?,?,?,?,?,?,?,?,?,?,?,?
tsp:euclidean:uniform-n9-s1101-i2,?,?,?,?,?,3.137984824912838,?,?,3.137984824912838,3.1379848249128384,3.1379848249128384,3.1379848249128384,?,?,?,?,?,?,3.137984824912838,?,?,?,?,?,?,?,?,?,?,?,?,?
tsp:euclidean:uniform-n9-s1101-i4,?,?,?,?,?,3.075690035461723,?,?,3.075690035461723,3.0756900354617236,3.075690035461723,3.0756900354617236,?,?,?,?,?,?,3.075690035461723,?,?,?,?,?,?,?,?,?,?,?,?,?
tsp:euclidean:uniform-n97-s1101-i5,?,?,?,?,?,7.368065714272371,?,?,7.368065714272371,8.157935485811803,?,?,?,?,?,?,?,?,7.368065714272371,?,?,?,?,?,?,?,?,?,?,?,?,?
tsp:euclidean:uniform-n98-s1101-i3,?,?,?,?,?,9.071826372773577,?,?,9.181432942926921,9.782539118736254,?,?,?,?,?,?,?,?,9.068143737414928,?,?,?,?,?,?,?,?,?,?,?,?,?
tsp:general:random-n10-s3101-i0,?,?,?,?,?,?,?,?,?,2.8002322619366953,2.616363201336819,2.616363201336819,?,?,?,?,?,?,?,?,?,?,?,?,?,?,?,?,?,?,?,?
tsp:general:random-n12-s3101-i1,?,?,?,?,?,?,?,?,?,3.7961275388521667,3.49572349672113,3.49572349672113,?,?,?,?,?,?,?,?,?,?,?,?,?,?,?,?,?,?,?,?
tsp:general:random-n13-s3101-i2,?,?,?,?,?,?,?,?,?,3.9439549776734286,3.780498352343995,3.780498352343995,?,?,?,?,?,?,?,?,?,?,?,?,?,?,?,?,?,?,?,?
tsp:general:random-n18-s3201-i1,?,?,?,?,?,?,?,?,?,3.8704096413073024,3.7363841692893667,3.7363841692893667,?,?,?,?,?,?,?,?,?,?,?,?,?,?,?,?,?,?,?,?
tsp:general:random-n21-s3201-i2,?,?,?,?,?,?,?,?,?,4.870511657594802,?,4.556184436562118,?,?,?,?,?,?,?,?,?,?,?,?,?,?,?,?,?,?,?,?
tsp:general:random-n24-s3201-i0,?,?,?,?,?,?,?,?,?,4.9858083841112535,?,4.804929851684388,?,?,?,?,?,?,?,?,?,?,?,?,?,?,?,?,?,?,?,?
tsp:general:random-n24-s3201-i3,?,?,?,?,?,?,?,?,?,4.540802167709723,?,4.351362963052257,?,?,?,?,?,?,?,?,?,?,?,?,?,?,?,?,?,?,?,?
tsp:general:random-n9-s3101-i3,?,?,?,?,?,?,?,?,?,3.1988904108801597,3.1988904108801592,3.1988904108801592,?,?,?,?,?,?,?,?,?,?,?,?,?,?,?,?,?,?,?,?
unit-commitment:classic:g4h12-s7801-i3,?,?,?,?,?,?,?,?,?,?,?,?,?,?,?,?,?,?,?,?,?,?,?,?,?,?,20039.476193536084,20169.05945896631,20039.476193536084,?,?,?
unit-commitment:classic:g4h13-s7801-i0,?,?,?,?,?,?,?,?,?,?,?,?,?,?,?,?,?,?,?,?,?,?,?,?,?,?,34317.88528243911,35794.12030339531,35794.12030339531,?,?,?
unit-commitment:classic:g4h14-s7801-i1,?,?,?,?,?,?,?,?,?,?,?,?,?,?,?,?,?,?,?,?,?,?,?,?,?,?,30106.680737223443,30106.680737223443,30106.680737223443,?,?,?
unit-commitment:classic:g4h18-s7801-i2,?,?,?,?,?,?,?,?,?,?,?,?,?,?,?,?,?,?,?,?,?,?,?,?,?,?,110508.5218989924,132102.15044204937,132102.15044204937,?,?,?
unit-commitment:classic:g5h13-s7801-i0,?,?,?,?,?,?,?,?,?,?,?,?,?,?,?,?,?,?,?,?,?,?,?,?,?,?,53084.98790309433,57293.64104424107,59611.08715376005,?,?,?
unit-commitment:classic:g5h14-s7801-i2,?,?,?,?,?,?,?,?,?,?,?,?,?,?,?,?,?,?,?,?,?,?,?,?,?,?,47740.01827022132,48639.94807929598,48639.94807929598,?,?,?
unit-commitment:classic:g5h14-s7801-i3,?,?,?,?,?,?,?,?,?,?,?,?,?,?,?,?,?,?,?,?,?,?,?,?,?,?,45276.38760536754,49587.88579225506,49022.84264539215,?,?,?
unit-commitment:classic:g5h17-s7801-i1,?,?,?,?,?,?,?,?,?,?,?,?,?,?,?,?,?,?,?,?,?,?,?,?,?,?,53778.021466401304,62654.10800092588,61489.276344812286,?,?,?
unit-commitment:storage:t32-s7901-i2,?,?,?,?,?,?,?,?,?,?,?,?,?,?,?,?,?,?,?,?,?,?,?,?,?,?,?,?,?,1868.8556881704196,1882.510741767284,1981.142969722974
unit-commitment:storage:t36-s7901-i0,?,?,?,?,?,?,?,?,?,?,?,?,?,?,?,?,?,?,?,?,?,?,?,?,?,?,?,?,?,1303.8324664241302,1311.9558879978129,1411.4095302519893
unit-commitment:storage:t38-s7901-i1,?,?,?,?,?,?,?,?,?,?,?,?,?,?,?,?,?,?,?,?,?,?,?,?,?,?,?,?,?,1848.8561719879835,1861.2605053619272,1941.0766848752132
unit-commitment:storage:t39-s7901-i4,?,?,?,?,?,?,?,?,?,?,?,?,?,?,?,?,?,?,?,?,?,?,?,?,?,?,?,?,?,1958.4647968884542,1972.7079414185039,2019.5048804954795
unit-commitment:storage:t40-s7901-i7,?,?,?,?,?,?,?,?,?,?,?,?,?,?,?,?,?,?,?,?,?,?,?,?,?,?,?,?,?,2335.2448218076943,2347.0844579552013,2435.0160444328067
unit-commitment:storage:t41-s7901-i5,?,?,?,?,?,?,?,?,?,?,?,?,?,?,?,?,?,?,?,?,?,?,?,?,?,?,?,?,?,3090.5532632088484,3131.3010851984786,3375.1917192662972
unit-commitment:storage:t46-s7901-i6,?,?,?,?,?,?,?,?,?,?,?,?,?,?,?,?,?,?,?,?,?,?,?,?,?,?,?,?,?,2567.519856140747,2603.364979323507,2717.820977966613
unit-commitment:storage:t47-s7901-i3,?,?,?,?,?,?,?,?,?,?,?,?,?,?,?,?,?,?,?,?,?,?,?,?,?,?,?,?,?,2664.740222690747,2686.566847128093,2762.8819809636584
