@relation algofinder_feature_costs

@attribute instance_id STRING
@attribute runtime_params@1 NUMERIC
@attribute memory_params@1 NUMERIC
@attribute runtime_etsp-geometry@1 NUMERIC
@attribute memory_etsp-geometry@1 NUMERIC

@data
bin-packing:large-items:n14-s7201-i0,1.3e-05,50855936,?,?
bin-packing:large-items:n14-s7201-i1,1.4e-05,50855936,?,?
bin-packing:large-items:n15-s7201-i2,1.4e-05,50855936,?,?
bin-packing:large-items:n15-s7201-i3,1.3e-05,50855936,?,?
bin-packing:large-items:n18-s7201-i1,2.3e-05,50855936,?,?
bin-packing:large-items:n18-s7201-i3,1.2e-05,50855936,?,?
bin-packing:large-items:n19-s7201-i0,1.2e-05,50855936,?,?
bin-packing:large-items:n19-s7201-i2,1.3e-05,50855936,?,?
bin-packing:vector:n11d2-s7001-i1,1.7e-05,50593792,?,?
bin-packing:vector:n11d3-s7001-i2,1.4e-05,50593792,?,?
bin-packing:vector:n12d2-s7001-i3,1.8e-05,50593792,?,?
bin-packing:vector:n13d2-s7001-i3,1.1e-05,50855936,?,?
bin-packing:vector:n13d3-s7001-i0,1.3e-05,50331648,?,?
bin-packing:vector:n15d2-s7001-i1,1.3e-05,50593792,?,?
bin-packing:vector:n16d3-s7001-i0,1.3e-05,50593792,?,?
bin-packing:vector:n16d3-s7001-i2,1.3e-05,50855936,?,?
knapsack:0-1:n19-s4101-i3,1.5e-05,50855936,?,?
knapsack:0-1:n21-s4101-i0,1.3e-05,50855936,?,?
knapsack:0-1:n21-s4101-i1,1.3e-05,50855936,?,?
knapsack:0-1:n23-s4101-i2,1.3e-05,50855936,?,?
knapsack:0-1:n34-s4201-i0,1.8e-05,50855936,?,?
knapsack:0-1:n37-s4201-i3,1.3e-05,50855936,?,?
knapsack:0-1:n42-s4201-i2,1.5e-05,50855936,?,?
knapsack:0-1:n43-s4201-i1,1.3e-05,50855936,?,?
knapsack:multidimensional:n21-s4101-i0,1.4e-05,50855936,?,?
knapsack:multidimensional:n21-s4101-i2,1.6e-05,50855936,?,?
knapsack:multidimensional:n24-s4101-i1,1.5e-05,50855936,?,?
knapsack:multidimensional:n26-s4101-i3,2e-05,50855936,?,?
knapsack:multidimensional:n34-s4201-i0,1.5e-05,50855936,?,?
knapsack:multidimensional:n35-s4201-i1,1.5e-05,50855936,?,?
knapsack:multidimensional:n41-s4201-i3,1.3e-05,50855936,?,?
knapsack:multidimensional:n42-s4201-i2,1.4e-05,50855936,?,?
knapsack:subset-sum:n18-s4101-i1,1.5e-05,50855936,?,?
knapsack:subset-sum:n21-s4101-i0,1.6e-05,50855936,?,?
knapsack:subset-sum:n21-s4101-i2,1.5e-05,50855936,?,?
knapsack:subset-sum:n24-s4101-i3,2.2e-05,50855936,?,?
knapsack:subset-sum:n34-s4201-i0,1.5e-05,50855936,?,?
knapsack:subset-sum:n41-s4201-i1,1.4e-05,50855936,?,?
knapsack:subset-sum:n41-s4201-i2,1.7e-05,50855936,?,?
knapsack:subset-sum:n41-s4201-i3,1.4e-05,50855936,?,?
parallel-scheduling:forest:n10m3-s7601-i3,1.4e-05,50987008,?,?
parallel-scheduling:forest:n11m2-s7601-i2,2e-05,50855936,?,?
parallel-scheduling:forest:n12m2-s7601-i0,1.3e-05,50855936,?,?
parallel-scheduling:forest:n12m4-s7601-i1,1.4e-05,50855936,?,?
parallel-scheduling:forest:n14m2-s7601-i2,1.4e-05,50987008,?,?
parallel-scheduling:forest:n14m2-s7601-i3,1.4e-05,50987008,?,?
parallel-scheduling:forest:n15m2-s7601-i0,1.4e-05,50987008,?,?
parallel-scheduling:forest:n16m4-s7601-i1,1.4e-05,50987008,?,?
parallel-scheduling:general:n11m2-s7401-i3,1.4e-05,50855936,?,?
parallel-scheduling:general:n12m3-s7401-i0,1.5e-05,50855936,?,?
parallel-scheduling:general:n13m2-s7401-i1,1.4e-05,50855936,?,?
parallel-scheduling:general:n13m3-s7401-i2,1.7e-05,50855936,?,?
parallel-scheduling:general:n14m4-s7401-i3,1.8e-05,50855936,?,?
parallel-scheduling:general:n9m2-s7401-i2,1.4e-05,50855936,?,?
parallel-scheduling:general:n9m3-s7401-i0,1.6e-05,50855936,?,?
parallel-scheduling:general:n9m4-s7401-i1,1.6e-05,50855936,?,?
scheduling:flow-shop-2:n10-s6101-i3,1.1e-05,50987008,?,?
scheduling:flow-shop-2:n14-s6101-i3,1.3e-05,50987008,?,?
scheduling:flow-shop-2:n15-s6101-i0,1.3e-05,50987008,?,?
scheduling:flow-shop-2:n15-s6101-i2,1.3e-05,50987008,?,?
scheduling:flow-shop-2:n17-s6101-i1,1.2e-05,50987008,?,?
scheduling:flow-shop-2:n24-s6101-i1,1.1e-05,50987008,?,?
scheduling:flow-shop-2:n25-s6101-i0,1.3e-05,50987008,?,?
scheduling:flow-shop-2:n27-s6101-i2,1.4e-05,50987008,?,?
scheduling:flow-shop-2:n27-s6101-i3,1.2e-05,50987008,?,?
scheduling:flow-shop-2:n7-s6101-i2,1.2e-05,50987008,?,?
scheduling:flow-shop-2:n8-s6101-i0,1.2e-05,50987008,?,?
scheduling:flow-shop-2:n8-s6101-i1,1.3e-05,50987008,?,?
scheduling:job-shop:j3m2-s6301-i0,1.7e-05,50987008,?,?
scheduling:job-shop:j3m2-s6301-i1,2.2e-05,50987008,?,?
scheduling:job-shop:j3m2-s6301-i2,1.6e-05,50987008,?,?
scheduling:job-shop:j3m3-s6301-i0,1.3e-05,50987008,?,?
scheduling:job-shop:j3m3-s6301-i1,1.8e-05,50987008,?,?
scheduling:job-shop:j3m3-s6301-i2,1.9e-05,50987008,?,?
scheduling:job-shop:j4m2-s6301-i0,2.3e-05,50987008,?,?
scheduling:job-shop:j4m2-s6301-i1,1.6e-05,50987008,?,?
scheduling:job-shop:j4m2-s6301-i2,1.5e-05,50987008,?,?
scheduling:job-shop:j4m3-s6301-i0,1.6e-05,50987008,?,?
scheduling:job-shop:j4m3-s6301-i1,1.6e-05,50987008,?,?
scheduling:job-shop:j4m3-s6301-i2,1.2e-05,50987008,?,?
shortest-path:dag:n10-s5101-i1,1.7e-05,50987008,?,?
shortest-path:dag:n11-s5101-i0,1.5e-05,50987008,?,?
shortest-path:dag:n14-s5101-i2,1.3e-05,50987008,?,?
shortest-path:dag:n14-s5101-i3,1.5e-05,50987008,?,?
shortest-path:dag:n21-s5201-i0,1.5e-05,50987008,?,?
shortest-path:dag:n22-s5201-i1,1.5e-05,50987008,?,?
shortest-path:dag:n23-s5201-i3,1.6e-05,50987008,?,?
shortest-path:dag:n25-s5201-i2,1.3e-05,50987008,?,?
shortest-path:general:n11-s5101-i0,1.4e-05,50987008,?,?
shortest-path:general:n11-s5101-i1,1.5e-05,50987008,?,?
shortest-path:general:n13-s5101-i2,1.6e-05,50987008,?,?
shortest-path:general:n14-s5101-i3,1.3e-05,50987008,?,?
shortest-path:general:n21-s5201-i0,1.6e-05,50987008,?,?
shortest-path:general:n24-s5201-i1,1.5e-05,50987008,?,?
shortest-path:general:n25-s5201-i3,1.6e-05,50987008,?,?
shortest-path:general:n26-s5201-i2,1.5e-05,50987008,?,?
tsp:clustered:clustered-n101-s1101-i4,1.3e-05,50987008,0.008451,52953088
tsp:clustered:clustered-n18-s1101-i2,1.3e-05,50987008,0.001496,52035584
tsp:clustered:clustered-n39-s1101-i4,1.4e-05,50987008,0.003405,52035584
tsp:clustered:clustered-n42-s1101-i2,1.1e-05,50987008,0.003426,52035584
tsp:euclidean:corridor-n10-s1101-i0,1.4e-05,50987008,0.001133,52035584
tsp:euclidean:corridor-n10-s1101-i5,1.3e-05,50987008,0.000929,52035584
tsp:euclidean:corridor-n103-s1101-i1,1.3e-05,50987008,0.009399,52953088
tsp:euclidean:corridor-n19-s1101-i0,1.3e-05,50987008,0.001427,52035584
tsp:euclidean:corridor-n21-s1101-i1,1.2e-05,50987008,0.00159,52035584
tsp:euclidean:corridor-n24-s1101-i3,1.1e-05,50987008,0.002032,52035584
tsp:euclidean:corridor-n39-s1101-i0,1.3e-05,50987008,0.002771,52035584
tsp:euclidean:corridor-n41-s1101-i1,1.3e-05,50987008,0.003036,52035584
tsp:euclidean:corridor-n9-s1101-i1,1e-05,50987008,0.000893,52035584
tsp:euclidean:corridor-n9-s1101-i3,1.3e-05,50987008,0.000807,52035584
tsp:euclidean:corridor-n97-s1101-i0,1.3e-05,50987008,0.007808,52690944
tsp:euclidean:uniform-n102-s1101-i2,1.8e-05,50987008,0.008872,52953088
tsp:euclidean:uniform-n18-s1101-i4,1.4e-05,50987008,0.001586,52035584
tsp:euclidean:uniform-n21-s1101-i5,1.3e-05,50987008,0.001793,52035584
tsp:euclidean:uniform-n43-s1101-i3,1.4e-05,50987008,0.004034,52035584
tsp:euclidean:uniform-n46-s1101-i5,1.2e-05,50987008,0.003649,52166656
tsp:euclidean:uniform-n9-s1101-i2,1.3e-05,50987008,0.000897,52035584
tsp:euclidean:uniform-n9-s1101-i4,1.8e-05,50987008,0.000991,52035584
tsp:euclidean:uniform-n97-s1101-i5,1.4e-05,50987008,0.008248,52953088
tsp:euclidean:uniform-n98-s1101-i3,1.2e-05,50987008,0.007988,52953088
tsp:general:random-n10-s3101-i0,1.2e-05,50987008,?,?
tsp:general:random-n12-s3101-i1,1.3e-05,50987008,?,?
tsp:general:random-n13-s3101-i2,1.2e-05,50987008,?,?
tsp:general:random-n18-s3201-i1,1.3e-05,50987008,?,?
tsp:general:random-n21-s3201-i2,1.5e-05,50987008,?,?
tsp:general:random-n24-s3201-i0,1e-05,50987008,?,?
tsp:general:random-n24-s3201-i3,1.2e-05,50987008,?,?
tsp:general:random-n9-s3101-i3,1.3e-05,50987008,?,?
unit-commitment:classic:g4h12-s7801-i3,1.3e-05,50987008,?,?
unit-commitment:classic:g4h13-s7801-i0,1.7e-05,50987008,?,?
unit-commitment:classic:g4h14-s7801-i1,1.9e-05,50987008,?,?
unit-commitment:classic:g4h18-s7801-i2,1.4e-05,50987008,?,?
unit-commitment:classic:g5h13-s7801-i0,1.7e-05,50987008,?,?
unit-commitment:classic:g5h14-s7801-i2,1.4e-05,50987008,?,?
unit-commitment:classic:g5h14-s7801-i3,1.7e-05,50987008,?,?
unit-commitment:classic:g5h17-s7801-i1,1.6e-05,50987008,?,?
unit-commitment:storage:t32-s7901-i2,2.1e-05,50987008,?,?
unit-commitment:storage:t36-s7901-i0,2e-05,50987008,?,?
unit-commitment:storage:t38-s7901-i1,2.2e-05,50987008,?,?
unit-commitment:storage:t39-s7901-i4,2.1e-05,50987008,?,?
unit-commitment:storage:t40-s7901-i7,1.7e-05,50987008,?,?
unit-commitment:storage:t41-s7901-i5,3.4e-05,50987008,?,?
unit-commitment:storage:t46-s7901-i6,2.1e-05,50987008,?,?
unit-commitment:storage:t47-s7901-i3,2.2e-05,50987008,?,?
